experiments/california_census/experiments_appendix/Instance1/mmc_encoding/mmc_erm.dimacs.0.log
ApproxMC:1:0:0:0.18:1:74
ApproxMC:1:0:1:0.15:1:74
ApproxMC:1:0:2:0.17:1:74
ApproxMC:1:0:4:0.36:1:74
ApproxMC:1:0:8:0.52:0:39
ApproxMC:1:0:6:0.55:1:74
ApproxMC:1:0:7:0.48:0:71
UniGen2:1:7:0.94:1:71
UniGen2:1:8:1.45:0:36
UniGen2:2:8:3.07:0:40
UniGen2:3:8:3.37:0:31
UniGen2:4:8:3.77:0:33
UniGen2:5:8:4.32:0:38
UniGen2:6:8:5.00:0:44
UniGen2:7:8:5.92:0:40
UniGen2:8:8:7.04:0:37
UniGen2:9:8:8.49:0:41
UniGen2:10:8:10.09:0:39
UniGen2:11:8:11.56:0:32
UniGen2:12:8:13.29:0:31
UniGen2:13:8:15.14:0:46
UniGen2:14:8:17.17:0:43
UniGen2:15:8:19.30:0:34
UniGen2:16:8:21.51:0:29
UniGen2:17:8:23.81:0:42
UniGen2:18:8:26.22:0:27
UniGen2:19:8:28.76:0:47
UniGen2:20:8:31.81:0:34
